\ This file was automatically generated by Zimpl
\ var x1 >= 0;
\ var x2 >= 0;
\ var x3 >= 0;
\ maximize Z:     1*x1 + 1*x2 + 0*x3;
\ subto c1:     1*x1 + 0*x2 + 1*x3 >= 1;
\ subto c2:     1*x1 - 3*x2 - 1*x1 >= 1;
\ subto c3:     1*x1 - 1*x2 + 5*x3 >= 5;
\ subto c4:     1*x1 + 1*x2 + 1*x3 <= 5;
\Problem name: pp
Maximize
 Z:  + x1 + x2
Subject to
 c1_1:
  + x3 + x1 >= 1
 c2_1:
  -3 x2 >= 1
 c3_1:
  +5 x3 - x2 + x1 >= 5
 c4_1:
  + x3 + x2 + x1 <= 5
Bounds
 0 <= x1 <= +inf
 0 <= x2 <= +inf
 0 <= x3 <= +inf
End
